NAME: Random_50_2
ELLAPSED_TIME_(ms): 1180
TOUR_SIZE: 886
TOUR_SECTION
0
24
32
2
10
22
9
47
38
31
11
1
49
39
7
28
3
8
41
20
23
17
43
40
16
6
5
26
37
45
12
19
36
21
34
14
42
27
48
29
4
30
13
33
46
18
35
44
25
15
0
EOF
